unknown
(model
; cardinality of BoundSet is 2
(declare-sort BoundSet 0)
; rep: @uc_BoundSet_0
; rep: @uc_BoundSet_1
; cardinality of UnboundSet is 1
(declare-sort UnboundSet 0)
(declare-fun groundTerm_3 () UnboundSet)
(define-fun Visits ((BOUND_VARIABLE_480 BoundSet) (BOUND_VARIABLE_481 BoundSet)) Bool true)
(define-fun IsInTheHospital ((BOUND_VARIABLE_484 BoundSet)) Bool true)
(define-fun ReceivesVisitingFriend ((BOUND_VARIABLE_484 BoundSet)) Bool true)
(define-fun IsInHospital ((BOUND_VARIABLE_484 BoundSet)) Bool false)
)
sat
(model
; cardinality of BoundSet is 1
(declare-sort BoundSet 0)
; rep: @uc_BoundSet_0
; cardinality of UnboundSet is 1
(declare-sort UnboundSet 0)
(declare-fun groundTerm_7 () UnboundSet)
(define-fun Visits ((BOUND_VARIABLE_491 BoundSet) (BOUND_VARIABLE_492 BoundSet)) Bool true)
(define-fun IsInTheHospital ((BOUND_VARIABLE_495 BoundSet)) Bool true)
(define-fun ReceivesVisitingFriend ((BOUND_VARIABLE_495 BoundSet)) Bool true)
(define-fun IsInHospital ((BOUND_VARIABLE_495 BoundSet)) Bool false)
)
